c status 185 1469392397042
c status 106 1469392397051
c status 105 1469392397204
c status 104 1469392397231
c status 103 1469392397235
c status 101 1469392397241
c status 100 1469392397265
c status 97 1469392397506
c status 96 1469392402992
s td 56 96 225
b 1 13 164 11 3 203 198 200 15 12 20 33 26 28 113 80 27 30 34 183 219 218 146 21 23 220 186 19 22 18 24 32 169 152 214
b 2 162 167 164 11 3 198 204 200 163 168 165 174 179 173 175 177 145 217 180 181 31 144 220 18 170 176 169 172 37 2 1
b 3 167 164 11 3 203 198 204 200 163 168 165 174 179 173 175 177 145 150 147 185 217 180 221 181 184 218 31 148 144 220 186 224 22 36 58 18 206 35 170 176 169 172 42 37 2 166 1
b 4 164 11 3 203 198 204 200 15 163 168 165 12 20 33 26 28 113 174 179 80 27 30 173 175 177 34 145 150 147 39 185 217 180 221 183 219 181 222 184 218 31 146 148 144 21 23 220 186 19 224 22 36 58 18 24 32 206 35 170 176 169 172 152 42 37 2 142 166 214 1
b 5 11 3 203 198 204 200 15 163 168 165 12 20 33 26 28 113 174 179 80 27 30 173 175 177 34 145 150 147 39 185 217 180 221 183 219 181 222 184 218 31 146 148 144 21 23 220 186 19 224 22 36 58 18 24 32 206 35 170 176 169 172 152 42 37 2 142 166 190 214 1
b 6 14 215 201 3 204 15 163 168 165 125 80 114 136 34 147 187 180 184 146 148 23 207 220 225 102 36 58 43 143 69 47 91
b 7 199 205 215 201 203 198 200 15 163 165 12 213 211 212 216 209 145 217 180 183 219 181 218 148 207 32 206 35 47 210 208 154
b 8 205 215 201 203 198 200 15 163 168 165 12 33 213 211 212 216 209 145 150 185 187 217 180 221 183 219 181 222 218 146 148 21 207 186 19 149 32 223 40 206 35 170 47 91 210 153 208 37 154
b 9 215 201 3 203 198 204 200 15 163 168 165 12 33 213 211 125 80 212 216 114 136 209 34 145 150 147 185 187 217 180 221 183 219 181 222 184 218 146 148 144 21 23 207 220 186 19 225 149 102 36 58 32 223 40 206 35 43 143 170 69 47 91 210 153 208 37 154
b 10 201 3 203 198 204 200 15 163 168 165 12 33 213 211 125 80 212 216 114 136 209 34 145 150 147 185 187 217 180 221 183 219 181 222 184 218 31 146 148 144 21 23 207 220 186 19 225 151 149 102 36 58 32 223 38 40 206 35 43 143 170 69 47 91 210 153 208 37 178 154
b 11 3 203 198 204 200 15 163 168 165 12 20 33 26 28 213 211 113 125 174 179 80 27 30 212 216 114 173 175 136 177 209 34 145 150 147 39 185 187 217 180 221 183 219 181 222 184 218 31 146 148 144 21 23 207 220 186 19 225 224 22 151 149 102 36 58 18 24 32 223 38 40 206 35 43 143 170 69 47 91 176 210 153 169 208 172 152 42 37 2 142 178 166 154 190 214 1
b 12 15 163 168 165 12 20 33 26 28 213 211 113 125 174 179 80 27 30 212 216 114 173 175 136 177 209 34 145 150 147 39 185 187 217 180 221 183 219 181 222 184 218 31 146 148 144 21 23 207 220 186 19 225 224 22 151 149 102 36 58 18 24 32 223 38 40 206 35 43 143 170 69 47 91 176 210 153 169 208 172 152 42 37 2 142 178 166 154 190 4 214 1
b 13 163 168 165 12 20 33 26 28 213 211 113 125 174 179 80 27 30 212 216 114 173 175 136 177 209 34 145 150 147 39 185 187 217 180 221 183 219 181 222 184 218 31 146 148 144 21 23 207 220 186 19 225 224 22 151 149 102 36 58 18 24 32 223 38 40 206 35 43 143 170 69 47 91 176 210 153 169 208 172 152 42 37 2 25 142 178 166 154 190 4 214 1
b 14 12 20 33 26 28 213 211 113 125 174 179 80 27 30 212 216 114 173 175 136 177 209 34 145 150 147 39 185 187 217 180 221 183 219 181 222 184 218 31 146 148 144 21 23 207 220 186 19 225 224 22 151 149 102 36 58 18 24 32 223 38 40 206 35 43 143 170 69 47 91 176 210 153 169 208 172 152 42 37 2 25 142 178 166 154 190 4 202 214 1
b 15 20 33 26 28 213 211 113 125 174 179 80 27 30 212 216 114 173 175 182 136 177 209 34 145 150 147 39 185 187 217 180 221 183 219 181 222 184 218 31 146 148 144 21 23 207 220 186 19 225 224 22 151 149 102 36 58 18 24 32 223 38 40 206 35 43 157 191 143 170 69 47 91 176 210 153 169 208 172 152 42 37 2 25 142 178 166 154 190 4 202 214 1
b 16 33 26 28 213 211 113 125 174 179 80 27 30 212 216 114 173 175 182 136 177 209 34 145 150 147 39 185 187 217 180 221 183 219 181 222 184 218 31 146 148 144 21 23 207 220 186 19 225 224 22 46 48 151 45 149 102 36 58 44 18 24 32 223 38 40 206 35 43 157 191 143 170 69 47 91 176 210 153 169 208 172 152 42 37 2 25 142 178 166 154 190 4 202 214 1
b 17 5 7 9 188 194 159 155 10 8 6 113 173 209 150 39 217 221 219 222 218 23 220 225 224 22 36 44 24 223 191 143 91 176 210 169 208 42 2
b 18 196 7 9 188 194 159 189 197 195 192 28 213 113 179 212 216 182 136 177 185 187 180 183 181 184 186 46 102 24 157 191 176 42 166
b 19 7 9 188 194 159 155 160 10 8 189 6 197 195 192 26 28 213 211 113 179 27 212 216 114 173 175 182 136 177 209 150 39 185 187 217 180 221 183 219 181 222 184 218 23 220 186 225 224 22 46 102 36 58 44 24 223 157 191 143 91 176 210 169 208 172 152 42 2 142 166 190
b 20 9 188 194 159 155 160 10 8 189 6 197 195 192 26 28 213 211 113 174 179 80 27 30 212 216 114 173 175 182 136 177 209 150 39 185 187 217 180 221 183 219 181 222 184 218 23 220 186 225 224 22 46 102 36 58 44 24 223 157 191 143 91 176 210 169 208 172 152 42 2 142 166 190 214
b 21 188 194 159 155 160 10 8 189 6 197 195 192 26 28 213 211 113 174 179 80 27 30 212 216 114 173 175 182 136 177 209 34 150 39 185 187 217 180 221 183 219 181 222 184 218 21 23 207 220 186 225 224 22 46 102 36 58 44 18 24 223 206 157 191 143 170 69 91 176 210 169 208 172 152 42 2 142 166 190 214
b 22 156 158 171 161 159 155 10 189 6 195 192 213 174 114 173 175 145 150 147 146 148 144 207 19 151 149 102 24 223 35 43 157 91 210 153 152 25
b 23 193 158 171 161 160 10 197 192 113 179 30 216 175 182 136 209 21 225 48 149 38 143
b 24 158 171 161 159 155 160 10 8 189 6 197 195 192 213 113 125 174 179 27 30 212 216 114 173 175 182 136 177 209 145 150 147 146 148 144 21 207 19 225 48 151 45 149 102 24 223 38 35 43 157 143 91 176 210 153 152 25 154
b 25 161 159 155 160 10 8 189 6 197 195 192 213 211 113 125 174 179 27 30 212 216 114 173 175 182 136 177 209 145 150 147 146 148 144 21 23 207 19 225 48 151 45 149 102 24 223 38 40 35 43 157 143 91 176 210 153 152 25 154
b 26 159 155 160 10 8 189 6 197 195 192 26 28 213 211 113 125 174 179 80 27 30 212 216 114 173 175 182 136 177 209 34 145 150 147 39 185 187 217 180 221 183 219 181 222 184 218 146 148 144 21 23 207 220 186 19 225 224 22 46 48 151 45 149 102 36 58 44 18 24 223 38 40 206 35 43 157 191 143 170 69 91 176 210 153 169 208 172 152 42 2 25 142 166 154 190 214
b 27 10 8 189 6 197 195 192 26 28 213 211 113 125 174 179 80 27 30 212 216 114 173 175 182 136 177 209 34 145 150 147 39 185 187 217 180 221 183 219 181 222 184 218 146 148 144 21 23 207 220 186 19 225 224 22 46 48 151 45 149 102 36 58 44 18 24 223 38 40 206 35 43 157 191 143 170 69 91 176 210 153 169 208 172 152 42 2 25 142 178 166 154 190 4 214
b 28 8 189 6 197 195 192 26 28 213 211 113 125 174 179 80 27 30 212 216 114 173 175 182 136 177 209 34 145 150 147 39 185 187 217 180 221 183 219 181 222 184 218 146 148 144 21 23 207 220 186 19 225 224 22 46 48 151 45 149 102 36 58 44 18 24 223 38 40 206 35 43 157 191 143 170 69 91 176 210 153 169 208 172 152 42 2 25 142 178 166 154 190 4 202 214 1
b 29 189 6 197 195 192 26 28 213 211 113 125 174 179 80 27 30 212 216 114 173 175 182 136 177 209 34 145 150 147 39 185 187 217 180 221 183 219 181 222 184 218 146 148 144 21 23 207 220 186 19 225 224 22 46 48 151 45 149 102 36 58 44 18 24 223 38 40 206 35 43 157 191 143 170 69 47 91 176 210 153 169 208 172 152 42 2 25 142 178 166 154 190 4 202 214 1
b 30 30 212 216 114 173 175 182 136 177 209 34 145 150 147 39 185 187 217 180 221 183 219 181 222 184 218 31 146 148 144 21 23 207 220 186 19 225 224 22 46 48 151 45 149 102 36 58 44 18 24 32 223 38 40 206 35 43 157 191 143 170 69 47 91 176 210 153 169 208 172 152 42 37 2 25 142 178 166 154 16 190 4 202 214 1
b 31 18 24 32 223 38 40 206 35 43 157 191 143 170 69 47 91 176 210 153 169 208 172 152 42 37 2 25 142 178 166 154 16 190 4 17 202 214 1
b 32 29 52 49 55 57 65 51 53 104 50 54 124 83 132 63 79 138 41 97 115 120 64 100 85 37 190 4 17 202 214
b 33 52 49 55 57 65 72 86 71 51 53 104 50 54 126 131 110 124 107 83 132 63 79 138 41 70 88 90 97 115 120 64 100 85 103 121 37 2 25 142 190 4 17 202 214
b 34 49 55 57 65 72 86 87 71 67 51 53 104 50 54 126 127 131 110 124 107 83 132 63 79 134 138 41 70 88 90 97 99 122 117 115 120 64 100 85 66 103 140 121 37 2 25 142 190 4 17 202 214
b 35 74 75 92 55 57 65 72 71 67 54 129 126 110 108 61 60 62 63 59 70 73 94 90 64 66 142 166
b 36 75 92 55 57 65 72 71 67 54 129 126 127 131 110 108 109 111 61 60 62 63 59 70 73 94 90 64 66 142 178 166 154
b 37 89 92 55 72 86 87 71 51 53 129 127 108 109 124 107 83 76 77 79 82 78 73 94 88 90 84 85 141 142 178
b 38 92 55 57 65 72 86 87 71 67 51 53 54 129 126 127 131 110 108 109 111 124 107 61 60 62 83 63 76 77 79 82 59 78 70 73 94 88 90 84 64 85 66 141 25 142 178 166 154
b 39 55 57 65 72 86 87 71 67 51 53 104 50 54 129 126 127 131 110 108 109 111 124 107 61 60 62 83 132 63 76 77 79 82 59 134 138 78 41 70 73 94 88 90 84 97 99 122 117 115 120 64 100 85 66 103 141 140 121 37 2 25 142 178 166 154 190 4 17 202 214
b 40 65 72 86 87 71 67 51 53 104 50 54 129 126 127 131 110 108 109 111 124 107 61 60 62 83 132 63 76 77 79 82 59 134 138 78 41 70 73 94 88 90 84 97 99 122 117 115 120 64 100 85 66 103 139 141 140 121 101 37 2 25 142 178 166 154 190 4 17 202 214
b 41 72 86 87 71 67 51 53 104 50 54 129 126 127 131 110 108 109 111 124 123 106 107 61 60 62 83 132 63 76 77 79 82 59 134 138 78 41 70 73 94 88 90 84 97 99 122 117 115 120 64 100 85 66 103 139 141 140 121 101 37 2 25 142 178 166 154 190 4 17 202 214
b 42 67 51 53 104 50 54 129 126 127 131 110 108 109 111 124 123 106 107 61 60 62 83 132 137 63 76 77 79 82 59 134 138 78 41 70 73 94 88 90 84 97 99 122 117 115 120 64 100 85 66 103 139 141 140 121 101 37 2 25 142 178 166 154 190 4 17 202 214
b 43 56 105 118 130 116 68 81 93 61 83 63 59 134 78 97 122 141 101 16 1
b 44 105 118 130 116 68 81 93 127 107 61 83 132 63 59 134 78 97 122 115 139 141 121 101 16 1
b 45 118 130 133 116 128 68 81 93 127 107 61 83 132 63 59 134 78 97 122 115 139 141 140 121 101 16 1
b 46 112 119 95 96 133 116 128 93 129 126 127 131 124 123 62 132 76 59 78 122 117 115 120 121 190 17 1
b 47 98 135 119 95 96 133 116 68 104 110 108 109 111 106 107 60 62 79 82 138 78 41 97 99 117 64 100 103 101 190 4
b 48 135 119 95 96 133 116 68 104 50 110 108 109 111 106 107 60 62 132 137 76 79 82 134 138 78 41 84 97 99 117 64 100 66 103 139 141 140 101 2 190 4
b 49 119 95 96 133 116 128 68 81 93 104 50 129 126 127 131 110 108 109 111 124 123 106 107 60 62 132 137 63 76 79 82 59 134 138 78 41 84 97 99 122 117 115 120 64 100 66 103 139 141 140 121 101 2 190 4 17 1
b 50 95 96 133 116 128 68 81 93 104 50 129 126 127 131 110 108 109 111 124 123 106 107 61 60 62 132 137 63 76 77 79 82 59 134 138 78 41 84 97 99 122 117 115 120 64 100 66 103 139 141 140 121 101 2 190 4 17 1
b 51 96 133 116 128 68 81 93 104 50 129 126 127 131 110 108 109 111 124 123 106 107 61 60 62 132 137 63 76 77 79 82 59 134 138 78 41 84 97 99 122 117 115 120 64 100 66 103 139 141 140 121 101 2 16 190 4 17 202 1
b 52 133 116 128 68 81 93 104 50 129 126 127 131 110 108 109 111 124 123 106 107 61 60 62 83 132 137 63 76 77 79 82 59 134 138 78 41 84 97 99 122 117 115 120 64 100 66 103 139 141 140 121 101 2 16 190 4 17 202 1
b 53 116 128 68 81 93 104 50 129 126 127 131 110 108 109 111 124 123 106 107 61 60 62 83 132 137 63 76 77 79 82 59 134 138 78 41 84 97 99 122 117 115 120 64 100 66 103 139 141 140 121 101 2 16 190 4 17 202 214 1
b 54 128 68 81 93 104 50 54 129 126 127 131 110 108 109 111 124 123 106 107 61 60 62 83 132 137 63 76 77 79 82 59 134 138 78 41 70 73 94 88 90 84 97 99 122 117 115 120 64 100 66 103 139 141 140 121 101 2 154 16 190 4 17 202 214 1
b 55 81 93 104 50 54 129 126 127 131 110 108 109 111 124 123 106 107 61 60 62 83 132 137 63 76 77 79 82 59 134 138 78 41 70 73 94 88 90 84 97 99 122 117 115 120 64 100 85 66 103 139 141 140 121 101 2 154 16 190 4 17 202 214 1
b 56 104 50 54 129 126 127 131 110 108 109 111 124 123 106 107 61 60 62 83 132 137 63 76 77 79 82 59 134 138 78 41 70 73 94 88 90 84 97 99 122 117 115 120 64 100 85 66 103 139 141 140 121 101 37 2 25 142 178 166 154 16 190 4 17 202 214 1
1 4
4 5
5 11
11 12
12 13
13 14
14 15
15 16
16 29
29 28
28 27
27 26
16 30
26 21
21 20
20 19
11 10
10 9
26 25
25 24
9 8
4 3
30 31
19 17
24 22
19 18
8 7
9 6
3 2
24 23
31 56
56 42
42 41
41 40
40 39
56 55
55 54
54 53
53 52
52 51
51 50
50 49
39 34
39 38
34 33
49 48
38 36
48 47
38 37
33 32
49 46
36 35
52 45
45 44
44 43
